set Pab := 
1
3
4
2
;

set J := 
Geri
Ghislaine
Geraldine
Georgette
Geneva
Gertrudis
Aniria
Anke
Anisia
Annabel
Aniko
Aniana
;

set K := 
Aranzazu
April
Arcadia
Arabela
Araci
Araminta
Ascla
Asteria
Aruna
Ashley
Asuncion
Aspasia
;

set cirugias := 
Cirugia_Cardiovascular
Cirugia_de_Cabeza_y_Cuello
Cirugia_Digestiva
Dermatologia
Ginecologia_y_Obstetricia
Neurocirugia
Odontologia
Oftalmologia
Otorrinolaringologia
Plastica_y_Reparadora
Traumatologia
Urologia_y_Nefrologia
;

param HDocSem := 
Geri 31
Ghislaine 16
Geraldine 24
Georgette 9
Geneva 16
Gertrudis 3
Aniria 19
Anke 18
Anisia 20
Annabel 16
Aniko 12
Aniana 14
;

param HParSem := 
Aranzazu 16
April 25
Arcadia 9
Arabela 18
Araci 14
Araminta 17
Ascla 14
Asteria 19
Aruna 15
Ashley 13
Asuncion 18
Aspasia 20
;

param HDocMax := 
Geri 45
Ghislaine 45
Geraldine 45
Georgette 45
Geneva 45
Gertrudis 45
Aniria 45
Anke 45
Anisia 45
Annabel 45
Aniko 45
Aniana 45
;

param HParMax := 
Aranzazu 45
April 45
Arcadia 45
Arabela 45
Araci 45
Araminta 45
Ascla 45
Asteria 45
Aruna 45
Ashley 45
Asuncion 45
Aspasia 45
;

param f1 := 
Geri Cirugia_Cardiovascular 1
Geri Cirugia_de_Cabeza_y_Cuello 1
Geri Cirugia_Digestiva 0
Geri Dermatologia 0
Geri Ginecologia_y_Obstetricia 1
Geri Neurocirugia 1
Geri Odontologia 0
Geri Oftalmologia 0
Geri Otorrinolaringologia 1
Geri Plastica_y_Reparadora 1
Geri Traumatologia 1
Geri Urologia_y_Nefrologia 0
Ghislaine Cirugia_Cardiovascular 0
Ghislaine Cirugia_de_Cabeza_y_Cuello 0
Ghislaine Cirugia_Digestiva 0
Ghislaine Dermatologia 1
Ghislaine Ginecologia_y_Obstetricia 1
Ghislaine Neurocirugia 1
Ghislaine Odontologia 1
Ghislaine Oftalmologia 0
Ghislaine Otorrinolaringologia 0
Ghislaine Plastica_y_Reparadora 1
Ghislaine Traumatologia 0
Ghislaine Urologia_y_Nefrologia 1
Geraldine Cirugia_Cardiovascular 1
Geraldine Cirugia_de_Cabeza_y_Cuello 1
Geraldine Cirugia_Digestiva 1
Geraldine Dermatologia 1
Geraldine Ginecologia_y_Obstetricia 0
Geraldine Neurocirugia 0
Geraldine Odontologia 1
Geraldine Oftalmologia 1
Geraldine Otorrinolaringologia 1
Geraldine Plastica_y_Reparadora 0
Geraldine Traumatologia 1
Geraldine Urologia_y_Nefrologia 1
Georgette Cirugia_Cardiovascular 1
Georgette Cirugia_de_Cabeza_y_Cuello 1
Georgette Cirugia_Digestiva 0
Georgette Dermatologia 0
Georgette Ginecologia_y_Obstetricia 1
Georgette Neurocirugia 0
Georgette Odontologia 1
Georgette Oftalmologia 1
Georgette Otorrinolaringologia 0
Georgette Plastica_y_Reparadora 1
Georgette Traumatologia 0
Georgette Urologia_y_Nefrologia 0
Geneva Cirugia_Cardiovascular 1
Geneva Cirugia_de_Cabeza_y_Cuello 1
Geneva Cirugia_Digestiva 1
Geneva Dermatologia 1
Geneva Ginecologia_y_Obstetricia 0
Geneva Neurocirugia 1
Geneva Odontologia 0
Geneva Oftalmologia 1
Geneva Otorrinolaringologia 1
Geneva Plastica_y_Reparadora 0
Geneva Traumatologia 1
Geneva Urologia_y_Nefrologia 0
Gertrudis Cirugia_Cardiovascular 0
Gertrudis Cirugia_de_Cabeza_y_Cuello 0
Gertrudis Cirugia_Digestiva 0
Gertrudis Dermatologia 1
Gertrudis Ginecologia_y_Obstetricia 0
Gertrudis Neurocirugia 0
Gertrudis Odontologia 0
Gertrudis Oftalmologia 1
Gertrudis Otorrinolaringologia 0
Gertrudis Plastica_y_Reparadora 0
Gertrudis Traumatologia 0
Gertrudis Urologia_y_Nefrologia 1
Aniria Cirugia_Cardiovascular 0
Aniria Cirugia_de_Cabeza_y_Cuello 1
Aniria Cirugia_Digestiva 1
Aniria Dermatologia 0
Aniria Ginecologia_y_Obstetricia 1
Aniria Neurocirugia 0
Aniria Odontologia 0
Aniria Oftalmologia 0
Aniria Otorrinolaringologia 1
Aniria Plastica_y_Reparadora 1
Aniria Traumatologia 1
Aniria Urologia_y_Nefrologia 1
Anke Cirugia_Cardiovascular 0
Anke Cirugia_de_Cabeza_y_Cuello 0
Anke Cirugia_Digestiva 1
Anke Dermatologia 0
Anke Ginecologia_y_Obstetricia 0
Anke Neurocirugia 1
Anke Odontologia 1
Anke Oftalmologia 1
Anke Otorrinolaringologia 1
Anke Plastica_y_Reparadora 1
Anke Traumatologia 1
Anke Urologia_y_Nefrologia 1
Anisia Cirugia_Cardiovascular 1
Anisia Cirugia_de_Cabeza_y_Cuello 0
Anisia Cirugia_Digestiva 0
Anisia Dermatologia 1
Anisia Ginecologia_y_Obstetricia 1
Anisia Neurocirugia 1
Anisia Odontologia 0
Anisia Oftalmologia 1
Anisia Otorrinolaringologia 1
Anisia Plastica_y_Reparadora 1
Anisia Traumatologia 1
Anisia Urologia_y_Nefrologia 1
Annabel Cirugia_Cardiovascular 0
Annabel Cirugia_de_Cabeza_y_Cuello 1
Annabel Cirugia_Digestiva 0
Annabel Dermatologia 1
Annabel Ginecologia_y_Obstetricia 1
Annabel Neurocirugia 1
Annabel Odontologia 1
Annabel Oftalmologia 0
Annabel Otorrinolaringologia 0
Annabel Plastica_y_Reparadora 0
Annabel Traumatologia 0
Annabel Urologia_y_Nefrologia 0
Aniko Cirugia_Cardiovascular 1
Aniko Cirugia_de_Cabeza_y_Cuello 0
Aniko Cirugia_Digestiva 0
Aniko Dermatologia 0
Aniko Ginecologia_y_Obstetricia 1
Aniko Neurocirugia 1
Aniko Odontologia 0
Aniko Oftalmologia 0
Aniko Otorrinolaringologia 0
Aniko Plastica_y_Reparadora 0
Aniko Traumatologia 1
Aniko Urologia_y_Nefrologia 1
Aniana Cirugia_Cardiovascular 1
Aniana Cirugia_de_Cabeza_y_Cuello 1
Aniana Cirugia_Digestiva 0
Aniana Dermatologia 0
Aniana Ginecologia_y_Obstetricia 0
Aniana Neurocirugia 0
Aniana Odontologia 1
Aniana Oftalmologia 1
Aniana Otorrinolaringologia 0
Aniana Plastica_y_Reparadora 0
Aniana Traumatologia 0
Aniana Urologia_y_Nefrologia 1
;

set P := 
5806675-7
16316064-5
13526578-4
23558963-2
13209465-5
10476799-0
19984079-0
18175182-7
17920181-3
23651914-4
;

param paciente_paterno := 
5806675-7 Eranthe
16316064-5 Elu
13526578-4 Enrica
23558963-2 Eleuteria
13209465-5 Elsira
10476799-0 Elmina
19984079-0 Edria
18175182-7 Eleora
17920181-3 Eloise
23651914-4 Elisabetta
;

param paciente_materno := 
5806675-7 Evita
16316064-5 Genoveva
13526578-4 Georgina
23558963-2 Glafira
13209465-5 Evacsa
10476799-0 Gali
19984079-0 Gorgonia
18175182-7 Gali
17920181-3 Gemma
23651914-4 Guvendolina
;

param paciente_nombre := 
5806675-7 Edythe
16316064-5 Ebony
13526578-4 ermelinda
23558963-2 Elvia
13209465-5 Epifania
10476799-0 Elizabeth
19984079-0 Ema
18175182-7 Edelba
17920181-3 Epifania
23651914-4 Eda
;

param paciente_cirugia := 
5806675-7 Urologia_y_Nefrologia
16316064-5 Ginecologia_y_Obstetricia
13526578-4 Urologia_y_Nefrologia
23558963-2 Cirugia_Digestiva
13209465-5 Cirugia_Digestiva
10476799-0 Odontologia
19984079-0 Urologia_y_Nefrologia
18175182-7 Plastica_y_Reparadora
17920181-3 Cirugia_Digestiva
23651914-4 Cirugia_Cardiovascular
;

param Dura := 
5806675-7 2
16316064-5 1
13526578-4 1
23558963-2 1
13209465-5 1
10476799-0 3
19984079-0 2
18175182-7 2
17920181-3 1
23651914-4 2
;

param Pri := 
5806675-7 9
16316064-5 3
13526578-4 5
23558963-2 7
13209465-5 8
10476799-0 10
19984079-0 2
18175182-7 6
17920181-3 4
23651914-4 1
;

